Traveling Salesman Problem/TSP_generados/Aleatorio1621103650_17.tsp
NAME: Aleatorio1621103650_17.tsp
COMMENT: Randomly generated scenario
TYPE: TSP
DIMENSION: 17
EDGE_WEIGHT_TYPE: ATT
NODE_COORD_SECTION
1 39.11 46.88
2 9.1 16.2
3 21.51 2.48
4 37.61 37.74
5 3.48 21.33
6 31.07 29.07
7 28.17 42.46
8 46.99 39.76
9 29.26 24.87
10 9.59 49.49
11 22.96 43.24
12 42.9 15.73
13 43.53 20.43
14 35.68 18.91
15 31.9 19.83
16 36.34 37.07
17 5.21 16.92
