Traveling Salesman Problem/TSP_generados/Aleatorio1621103650_17.opt.tour
NAME: Aleatorio1621103650_17.opt.tour
COMMENT: Optimal solution for Aleatorio1621103650_17 (171.1178286343892)
TYPE: TOUR
DIMENSION: 17
TOUR_SECTION
1 8 4 16 6 9 15 14 13 12 3 2 17 5 10 11 7
-1
EOF
